unsat
(:max-memory         18.43
 :memory             18.34
 :nlsat-arith-var    3
 :nlsat-atoms        8
 :nlsat-bool-var     1
 :nlsat-clauses      8
 :nlsat-conflicts    1
 :nlsat-propagations 3
 :nlsat-stages       1
 :num-allocs         49006
 :rlimit-count       649
 :time               0.00
 :total-time         0.01)
